100
67
49
15
57
82
77
4
86
26
60
29
12
36
18
14
42
5
64
51
22
22
6
29
19
8
36
16
61
97
14
70
94
84
56
44
94
29
43
12
21
45
91
85
4
3
70
57
80
95
59
54
41
81
98
71
7
29
54
97
64
24
38
44
24
17
30
23
39
84
42
53
61
20
16
44
35
24
80
27
16
88
86
57
67
18
35
57
41
83
67
20
69
34
30
92
69
43
35
19
80
40